
Gurobi 9.0.0 (linux64) logging started Wed Feb  5 18:32:54 2020

Changed value of parameter LogFile to gurobi-jss.log_3_2
   Prev:   Default: 

Gurobi 9.0.0 (linux64) logging started Wed 05 Feb 2020 06:33:28 PM CET

Changed value of parameter LogFile to gurobi-jss.log_3_2
   Prev:   Default: 

Gurobi 9.0.0 (linux64) logging started Wed 05 Feb 2020 06:40:31 PM CET

Changed value of parameter LogFile to gurobi-jss.log_3_2
   Prev:   Default: 

Gurobi 9.0.0 (linux64) logging started Wed 05 Feb 2020 06:41:06 PM CET

Changed value of parameter LogFile to gurobi-jss.log_3_2
   Prev:   Default: 

Gurobi 9.0.0 (linux64) logging started Wed Feb  5 23:37:46 2020

Changed value of parameter LogFile to gurobi-jss.log_3_2
   Prev:   Default: 

Gurobi 9.0.0 (linux64) logging started Thu Feb  6 09:15:01 2020

Changed value of parameter LogFile to gurobi-jss.log_3_2
   Prev:   Default: 

Gurobi 9.0.0 (linux64) logging started Thu Feb  6 09:16:34 2020

Changed value of parameter LogFile to gurobi-jss.log_3_2
   Prev:   Default: 

Gurobi 9.0.0 (linux64) logging started Thu Feb  6 09:16:46 2020

Changed value of parameter LogFile to gurobi-jss.log_3_2
   Prev:   Default: 

Gurobi 9.0.0 (linux64) logging started Thu Feb  6 09:16:56 2020

Changed value of parameter LogFile to gurobi-jss.log_3_2
   Prev:   Default: 

Gurobi 9.0.0 (linux64) logging started Thu Feb  6 09:17:45 2020

Changed value of parameter LogFile to gurobi-jss.log_3_2
   Prev:   Default: 

Gurobi 9.0.0 (linux64) logging started Thu Feb  6 09:19:11 2020

Changed value of parameter LogFile to gurobi-jss.log_3_2
   Prev:   Default: 

Gurobi 9.0.0 (linux64) logging started Thu Feb  6 09:19:42 2020

Changed value of parameter LogFile to gurobi-jss.log_3_2
   Prev:   Default: 

Gurobi 9.0.0 (linux64) logging started Thu Feb  6 09:20:54 2020

Changed value of parameter LogFile to gurobi-jss.log_3_2
   Prev:   Default: 

Gurobi 9.0.0 (linux64) logging started Thu Feb  6 09:22:07 2020

Changed value of parameter LogFile to gurobi-jss.log_3_2
   Prev:   Default: 

Gurobi 9.0.0 (linux64) logging started Thu Feb  6 09:23:01 2020

Changed value of parameter LogFile to gurobi-jss.log_3_2
   Prev:   Default: 

Gurobi 9.0.0 (linux64) logging started Thu Feb  6 09:25:37 2020

Changed value of parameter LogFile to gurobi-jss.log_3_2
   Prev:   Default: 

Gurobi 9.0.0 (linux64) logging started Thu Feb  6 09:26:31 2020

Changed value of parameter LogFile to gurobi-jss.log_3_2
   Prev:   Default: 

Gurobi 9.0.0 (linux64) logging started Thu Feb  6 09:26:47 2020

Changed value of parameter LogFile to gurobi-jss.log_3_2
   Prev:   Default: 

Gurobi 9.0.0 (linux64) logging started Thu Feb  6 09:28:38 2020

Changed value of parameter LogFile to gurobi-jss.log_3_2
   Prev:   Default: 

Gurobi 9.0.0 (linux64) logging started Thu Feb  6 09:29:40 2020

Changed value of parameter LogFile to gurobi-jss.log_3_2
   Prev:   Default: 

Gurobi 9.0.0 (linux64) logging started Thu Feb  6 09:31:23 2020

Changed value of parameter LogFile to gurobi-jss.log_3_2
   Prev:   Default: 

Gurobi 9.0.0 (linux64) logging started Thu Feb  6 09:31:29 2020

Changed value of parameter LogFile to gurobi-jss.log_3_2
   Prev:   Default: 

Gurobi 9.0.0 (linux64) logging started Thu Feb  6 09:32:28 2020

Changed value of parameter LogFile to gurobi-jss.log_3_2
   Prev:   Default: 

Gurobi 9.0.0 (linux64) logging started Thu 06 Feb 2020 09:41:00 AM CET

Changed value of parameter LogFile to gurobi-jss.log_3_2
   Prev:   Default: 

Gurobi 9.0.0 (linux64) logging started Thu 06 Feb 2020 09:44:31 AM CET

Changed value of parameter LogFile to gurobi-jss.log_3_2
   Prev:   Default: 

Gurobi 9.0.0 (linux64) logging started Thu Feb  6 09:45:58 2020

Changed value of parameter LogFile to gurobi-jss.log_3_2
   Prev:   Default: 

Gurobi 9.0.0 (linux64) logging started Thu Feb  6 09:50:54 2020

Changed value of parameter LogFile to gurobi-jss.log_3_2
   Prev:   Default: 

Gurobi 9.0.0 (linux64) logging started Thu Feb  6 10:01:45 2020

Changed value of parameter LogFile to gurobi-jss.log_3_2
   Prev:   Default: 

Gurobi 9.0.0 (linux64) logging started Thu Feb  6 10:02:47 2020

Changed value of parameter LogFile to gurobi-jss.log_3_2
   Prev:   Default: 

Gurobi 9.0.0 (linux64) logging started Thu Feb  6 10:08:00 2020

Changed value of parameter LogFile to gurobi-jss.log_3_2
   Prev:   Default: 

Gurobi 9.0.0 (linux64) logging started Thu Feb  6 10:08:22 2020

Changed value of parameter LogFile to gurobi-jss.log_3_2
   Prev:   Default: 

Gurobi 9.0.0 (linux64) logging started Thu Feb  6 10:08:24 2020

Changed value of parameter LogFile to gurobi-jss.log_3_2
   Prev:   Default: 

Gurobi 9.0.0 (linux64) logging started Thu Feb  6 10:08:30 2020

Changed value of parameter LogFile to gurobi-jss.log_3_2
   Prev:   Default: 

Gurobi 9.0.0 (linux64) logging started Thu Feb  6 10:11:21 2020

Changed value of parameter LogFile to gurobi-jss.log_3_2
   Prev:   Default: 

Gurobi 9.0.0 (linux64) logging started Thu Feb  6 10:11:53 2020

Changed value of parameter LogFile to gurobi-jss.log_3_2
   Prev:   Default: 

Gurobi 9.0.0 (linux64) logging started Thu Feb  6 10:26:25 2020

Changed value of parameter LogFile to gurobi-jss.log_3_2
   Prev:   Default: 

Gurobi 9.0.0 (linux64) logging started Thu Feb  6 11:00:37 2020

Changed value of parameter LogFile to gurobi-jss.log_3_2
   Prev:   Default: 

Gurobi 9.0.0 (linux64) logging started Thu Feb  6 11:11:22 2020

Changed value of parameter LogFile to gurobi-jss.log_3_2
   Prev:   Default: 

Gurobi 9.0.0 (linux64) logging started Thu 06 Feb 2020 11:20:20 AM CET

Changed value of parameter LogFile to gurobi-jss.log_3_2
   Prev:   Default: 

Gurobi 9.0.0 (linux64) logging started Thu 06 Feb 2020 11:21:13 AM CET

Changed value of parameter LogFile to gurobi-jss.log_3_2
   Prev:   Default: 

Gurobi 9.0.0 (linux64) logging started Thu 06 Feb 2020 11:22:17 AM CET

Changed value of parameter LogFile to gurobi-jss.log_3_2
   Prev:   Default: 

Gurobi 9.0.0 (linux64) logging started Thu 06 Feb 2020 11:23:06 AM CET

Changed value of parameter LogFile to gurobi-jss.log_3_2
   Prev:   Default: 

Gurobi 9.0.0 (linux64) logging started Thu 06 Feb 2020 11:23:40 AM CET

Changed value of parameter LogFile to gurobi-jss.log_3_2
   Prev:   Default: 

Gurobi 9.0.0 (linux64) logging started Thu 06 Feb 2020 11:24:12 AM CET

Changed value of parameter LogFile to gurobi-jss.log_3_2
   Prev:   Default: 

Gurobi 9.0.0 (linux64) logging started Thu 06 Feb 2020 11:30:01 AM CET

Changed value of parameter LogFile to gurobi-jss.log_3_2
   Prev:   Default: 

Gurobi 9.0.0 (linux64) logging started Thu 06 Feb 2020 11:32:46 AM CET

Changed value of parameter LogFile to gurobi-jss.log_3_2
   Prev:   Default: 

Gurobi 9.0.0 (linux64) logging started Thu 06 Feb 2020 11:35:52 AM CET

Changed value of parameter LogFile to gurobi-jss.log_3_2
   Prev:   Default: 

Gurobi 9.0.0 (linux64) logging started Thu 06 Feb 2020 11:36:22 AM CET

Changed value of parameter LogFile to gurobi-jss.log_3_2
   Prev:   Default: 

Gurobi 9.0.0 (linux64) logging started Thu 06 Feb 2020 12:41:28 PM CET

Changed value of parameter LogFile to gurobi-jss.log_3_2
   Prev:   Default: 

Gurobi 9.0.0 (linux64) logging started Thu 06 Feb 2020 12:41:53 PM CET

Changed value of parameter LogFile to gurobi-jss.log_3_2
   Prev:   Default: 

Gurobi 9.0.0 (linux64) logging started Thu 06 Feb 2020 12:45:34 PM CET

Changed value of parameter LogFile to gurobi-jss.log_3_2
   Prev:   Default: 

Gurobi 9.0.0 (linux64) logging started Thu 06 Feb 2020 12:55:56 PM CET

Changed value of parameter LogFile to gurobi-jss.log_3_2
   Prev:   Default: 

Gurobi 9.0.0 (linux64) logging started Thu 06 Feb 2020 12:56:23 PM CET

Changed value of parameter LogFile to gurobi-jss.log_3_2
   Prev:   Default: 

Gurobi 9.0.0 (linux64) logging started Thu 06 Feb 2020 12:56:34 PM CET

Changed value of parameter LogFile to gurobi-jss.log_3_2
   Prev:   Default: 

Gurobi 9.0.0 (linux64) logging started Thu 06 Feb 2020 12:58:20 PM CET

Changed value of parameter LogFile to gurobi-jss.log_3_2
   Prev:   Default: 

Gurobi 9.0.0 (linux64) logging started Thu 06 Feb 2020 12:58:42 PM CET

Changed value of parameter LogFile to gurobi-jss.log_3_2
   Prev:   Default: 

Gurobi 9.0.0 (linux64) logging started Thu 06 Feb 2020 01:00:42 PM CET

Changed value of parameter LogFile to gurobi-jss.log_3_2
   Prev:   Default: 

Gurobi 9.0.0 (linux64) logging started Thu 06 Feb 2020 01:00:59 PM CET

Changed value of parameter LogFile to gurobi-jss.log_3_2
   Prev:   Default: 

Gurobi 9.0.0 (linux64) logging started Thu 06 Feb 2020 01:01:25 PM CET

Changed value of parameter LogFile to gurobi-jss.log_3_2
   Prev:   Default: 

Gurobi 9.0.0 (linux64) logging started Thu 06 Feb 2020 01:02:18 PM CET

Changed value of parameter LogFile to gurobi-jss.log_3_2
   Prev:   Default: 

Gurobi 9.0.0 (linux64) logging started Thu 06 Feb 2020 01:03:31 PM CET

Changed value of parameter LogFile to gurobi-jss.log_3_2
   Prev:   Default: 

Gurobi 9.0.0 (linux64) logging started Thu 06 Feb 2020 01:05:38 PM CET

Changed value of parameter LogFile to gurobi-jss.log_3_2
   Prev:   Default: 

Gurobi 9.0.0 (linux64) logging started Thu 06 Feb 2020 01:11:33 PM CET

Changed value of parameter LogFile to gurobi-jss.log_3_2
   Prev:   Default: 

Gurobi 9.0.0 (linux64) logging started Thu 06 Feb 2020 01:13:49 PM CET

Changed value of parameter LogFile to gurobi-jss.log_3_2
   Prev:   Default: 

Gurobi 9.0.0 (linux64) logging started Thu 06 Feb 2020 01:14:25 PM CET

Changed value of parameter LogFile to gurobi-jss.log_3_2
   Prev:   Default: 

Gurobi 9.0.0 (linux64) logging started Thu 06 Feb 2020 01:16:06 PM CET

Changed value of parameter LogFile to gurobi-jss.log_3_2
   Prev:   Default: 

Gurobi 9.0.0 (linux64) logging started Thu 06 Feb 2020 01:16:46 PM CET

Changed value of parameter LogFile to gurobi-jss.log_3_2
   Prev:   Default: 

Gurobi 9.0.0 (linux64) logging started Thu 06 Feb 2020 01:28:39 PM CET

Changed value of parameter LogFile to gurobi-jss.log_3_2
   Prev:   Default: 

Gurobi 9.0.0 (linux64) logging started Thu 06 Feb 2020 01:31:58 PM CET

Changed value of parameter LogFile to gurobi-jss.log_3_2
   Prev:   Default: 

Gurobi 9.0.0 (linux64) logging started Fri 07 Feb 2020 01:36:16 PM CET

Changed value of parameter LogFile to gurobi-jss.log_3_2
   Prev:   Default: 

Gurobi 9.0.0 (linux64) logging started Fri 07 Feb 2020 01:38:07 PM CET

Changed value of parameter LogFile to gurobi-jss.log_3_2
   Prev:   Default: 

Gurobi 9.0.0 (linux64) logging started Fri 07 Feb 2020 01:39:40 PM CET

Changed value of parameter LogFile to gurobi-jss.log_3_2
   Prev:   Default: 
